NAME : XML100_3143_19
DIMENSION : 101
NB_CLUSTERS : 4
CLUSTERING_ALG : KMedoids
CLUSTERING_PARAMS : k(3)
CLUSTERS
1 0
2 2 3 6 9 12 17 18 21 24 25 28 30 31 32 37 39 47 48 51 54 57 62 68 69 70 73 76 77 78 81 90 91 98 100
3 4 5 10 11 13 14 15 19 20 22 23 27 29 33 36 38 40 44 46 49 55 58 65 67 72 74 75 79 82 86 89 95 96
4 1 7 8 16 26 34 35 41 42 43 45 50 52 53 56 59 60 61 63 64 66 71 80 83 84 85 87 88 92 93 94 97 99
EOF